g3 0 1 0	# problem d5n8R4R6d0005d05
 8 9 1 0 4	# vars, constraints, objectives, ranges, eqns
 3 1	# nonlinear constraints, objectives
 0 0	# network constraints: nonlinear, linear
 8 8 8	# nonlinear vars in constraints, objectives, both
 0 0 0 1	# linear network variables; functions; arith, flags
 0 0 0 0 0	# discrete variables: binary, integer, nonlinear (b,c,o)
 56 8	# nonzeros in Jacobian, gradients
 0 0	# max name lengths: constraints, variables
 0 0 0 0 0	# common exprs: b,c,o,c1,o1
b
0 0.31 2.13
0 0.07 2.28
0 0.62 2.94
0 0.65 2.77
0 0.56 2.53
0 0.81 2.05
0 0.7 2.31
0 0.47 2.5
r
2 75.676
2 152.768
2 159.779
4 43
4 9.8
4 30.549
4 9.424
2 44.228
2 33.027
C0
o2
o2
o2
n4.01
v1
v5
v6
C1
o54
3
o2
o2
o2
n8.08
v1
v5
v6
o2
o2
o2
o2
n0.79
v0
v0
v3
v6
o2
o2
o2
o2
n7.87
v3
v3
v5
v6
C2
o54
6
o2
o2
o2
n2.41
v1
v5
v6
o16
o2
o2
o2
o2
n8.42
v0
v0
v3
v6
o2
o2
o2
o2
n8.48
v3
v3
v5
v6
o2
o2
o2
o2
o2
n7.7
v0
v0
v0
v3
v3
o2
o2
o2
o2
o2
n4.98
v1
v4
v5
v5
v7
o2
o2
o2
o2
o2
n2.19
v2
v6
v6
v7
v7
C3
n0
C4
n0
C5
n0
C6
n0
C7
n0
C8
n0
O0 0
o54
6
o2
o2
o2
n8.67
v1
v5
v6
o2
o2
o2
o2
n1.45
v0
v0
v3
v6
o2
o2
o2
o2
n4.49
v3
v3
v5
v6
o2
o2
o2
o2
o2
n8.85
v0
v0
v0
v3
v3
o2
o2
o2
o2
o2
n9.47
v1
v4
v5
v5
v7
o2
o2
o2
o2
o2
n0.85
v2
v6
v6
v7
v7
k7
9
15
23
29
36
43
49
J0 8
0 2.89
1 4.88
2 2.97
3 8.49
4 5.21
5 7.69
6 4.75
7 6.92
J1 8
0 0.49
1 5.2
2 7.86
3 9.88
4 2.26
5 9.68
6 9.48
7 7.13
J2 8
0 3.67
1 -8.05
2 8.93
3 1.58
4 2.16
5 7.49
6 4.01
7 7.45
J3 4
0 9.33
2 8.59
5 9.86
7 1.5
J4 4
0 -7.24
1 0.81
2 9.23
4 0.81
J5 4
0 9.63
2 9.91
4 0.53
7 0.23
J6 4
0 7.56
3 -7.51
5 2.28
6 6.5
J7 8
0 9.3
1 0.75
2 6.69
3 -1.93
4 -2.63
5 4.88
6 9.63
7 4.03
J8 8
0 3.57
1 8.75
2 6.12
3 7.28
4 1.6
5 1.45
6 2.54
7 -8.97
G0 8
0 1.87
1 4.94
2 5.83
3 6.68
4 4.81
5 -3.83
6 6.41
7 1.11
